param n := 60;
param c := 3000
param : V : p w :=
   0	 506	 496
   1	 260	 250
   2	 264	 254
   3	 406	 396
   4	 280	 270
   5	 344	 334
   6	 493	 483
   7	 262	 252
   8	 275	 265
   9	 473	 463
  10	 271	 261
  11	 286	 276
  12	 399	 389
  13	 293	 283
  14	 338	 328
  15	 390	 380
  16	 278	 268
  17	 362	 352
  18	 426	 416
  19	 292	 282
  20	 312	 302
  21	 398	 388
  22	 262	 252
  23	 370	 360
  24	 499	 489
  25	 262	 252
  26	 269	 259
  27	 443	 433
  28	 291	 281
  29	 296	 286
  30	 390	 380
  31	 295	 285
  32	 345	 335
  33	 382	 372
  34	 311	 301
  35	 337	 327
  36	 382	 372
  37	 291	 281
  38	 357	 347
  39	 365	 355
  40	 315	 305
  41	 350	 340
  42	 442	 432
  43	 288	 278
  44	 300	 290
  45	 472	 462
  46	 272	 262
  47	 286	 276
  48	 494	 484
  49	 262	 252
  50	 274	 264
  51	 432	 422
  52	 292	 282
  53	 306	 296
  54	 479	 469
  55	 272	 262
  56	 279	 269
  57	 368	 358
  58	 291	 281
  59	 371	 361
;

set E :=
   0	   2
   0	   4
   0	   5
   0	   6
   0	   7
   0	   9
   0	  12
   0	  14
   0	  17
   0	  18
   0	  21
   0	  26
   0	  29
   0	  30
   0	  31
   0	  33
   0	  35
   0	  40
   0	  41
   0	  43
   0	  45
   0	  46
   0	  47
   0	  56
   0	  57
   0	  58
   1	   2
   1	   3
   1	   4
   1	   5
   1	  10
   1	  11
   1	  12
   1	  14
   1	  21
   1	  24
   1	  27
   1	  30
   1	  35
   1	  37
   1	  40
   1	  42
   1	  43
   1	  46
   1	  48
   1	  51
   1	  52
   1	  53
   1	  54
   1	  55
   1	  57
   2	   6
   2	   8
   2	  11
   2	  13
   2	  14
   2	  15
   2	  17
   2	  19
   2	  20
   2	  23
   2	  24
   2	  26
   2	  28
   2	  33
   2	  34
   2	  38
   2	  43
   2	  44
   2	  48
   2	  50
   2	  51
   2	  52
   2	  56
   2	  57
   3	   7
   3	   8
   3	  10
   3	  12
   3	  14
   3	  15
   3	  16
   3	  26
   3	  27
   3	  28
   3	  29
   3	  30
   3	  31
   3	  34
   3	  35
   3	  43
   3	  47
   3	  48
   3	  49
   3	  53
   3	  54
   3	  59
   4	   6
   4	   8
   4	  12
   4	  16
   4	  18
   4	  20
   4	  23
   4	  26
   4	  29
   4	  30
   4	  31
   4	  32
   4	  34
   4	  37
   4	  42
   4	  43
   4	  44
   4	  45
   4	  48
   4	  50
   4	  56
   4	  59
   5	   7
   5	  10
   5	  12
   5	  15
   5	  20
   5	  21
   5	  22
   5	  23
   5	  26
   5	  29
   5	  32
   5	  33
   5	  35
   5	  36
   5	  39
   5	  45
   5	  46
   5	  51
   5	  54
   5	  55
   5	  58
   5	  59
   6	  11
   6	  15
   6	  16
   6	  18
   6	  19
   6	  21
   6	  22
   6	  23
   6	  25
   6	  26
   6	  29
   6	  35
   6	  36
   6	  37
   6	  38
   6	  41
   6	  43
   6	  45
   6	  53
   7	  11
   7	  12
   7	  14
   7	  16
   7	  17
   7	  20
   7	  27
   7	  29
   7	  32
   7	  34
   7	  35
   7	  38
   7	  41
   7	  44
   7	  45
   7	  48
   7	  51
   7	  56
   7	  58
   7	  59
   8	   9
   8	  11
   8	  12
   8	  14
   8	  22
   8	  24
   8	  26
   8	  29
   8	  33
   8	  34
   8	  35
   8	  37
   8	  38
   8	  39
   8	  40
   8	  41
   8	  43
   8	  50
   8	  51
   8	  54
   8	  56
   9	  10
   9	  11
   9	  14
   9	  15
   9	  16
   9	  17
   9	  23
   9	  24
   9	  31
   9	  34
   9	  35
   9	  38
   9	  46
   9	  53
   9	  54
   9	  56
   9	  57
   9	  58
   9	  59
  10	  11
  10	  13
  10	  14
  10	  17
  10	  18
  10	  22
  10	  23
  10	  24
  10	  34
  10	  35
  10	  44
  10	  46
  10	  47
  10	  50
  10	  54
  10	  58
  11	  12
  11	  17
  11	  23
  11	  24
  11	  26
  11	  27
  11	  29
  11	  30
  11	  31
  11	  33
  11	  37
  11	  40
  11	  42
  11	  44
  11	  45
  11	  47
  11	  49
  11	  51
  11	  52
  12	  13
  12	  14
  12	  15
  12	  16
  12	  25
  12	  26
  12	  27
  12	  28
  12	  29
  12	  31
  12	  33
  12	  34
  12	  38
  12	  40
  12	  42
  12	  44
  12	  49
  12	  50
  12	  54
  13	  15
  13	  17
  13	  19
  13	  20
  13	  21
  13	  22
  13	  27
  13	  28
  13	  33
  13	  41
  13	  42
  13	  44
  13	  53
  13	  56
  13	  57
  14	  16
  14	  18
  14	  23
  14	  26
  14	  31
  14	  33
  14	  34
  14	  36
  14	  41
  14	  44
  14	  47
  14	  51
  14	  52
  15	  18
  15	  25
  15	  26
  15	  27
  15	  29
  15	  32
  15	  33
  15	  35
  15	  36
  15	  37
  15	  38
  15	  45
  15	  46
  15	  49
  15	  50
  15	  51
  15	  53
  15	  54
  15	  56
  15	  57
  15	  59
  16	  17
  16	  19
  16	  23
  16	  26
  16	  28
  16	  29
  16	  32
  16	  34
  16	  37
  16	  39
  16	  41
  16	  42
  16	  43
  16	  44
  16	  48
  16	  52
  16	  55
  16	  57
  17	  20
  17	  21
  17	  22
  17	  23
  17	  26
  17	  29
  17	  34
  17	  35
  17	  36
  17	  37
  17	  38
  17	  39
  17	  40
  17	  45
  17	  47
  17	  48
  17	  51
  17	  53
  17	  54
  17	  56
  17	  59
  18	  20
  18	  21
  18	  22
  18	  23
  18	  25
  18	  29
  18	  32
  18	  33
  18	  35
  18	  37
  18	  41
  18	  42
  18	  43
  18	  46
  18	  48
  18	  49
  18	  50
  18	  51
  18	  58
  19	  22
  19	  25
  19	  27
  19	  29
  19	  30
  19	  35
  19	  36
  19	  47
  19	  48
  19	  50
  19	  51
  19	  52
  19	  53
  19	  56
  19	  57
  19	  59
  20	  21
  20	  22
  20	  23
  20	  24
  20	  25
  20	  28
  20	  29
  20	  31
  20	  36
  20	  41
  20	  44
  20	  47
  20	  49
  20	  52
  20	  53
  20	  54
  21	  24
  21	  27
  21	  31
  21	  32
  21	  33
  21	  34
  21	  36
  21	  37
  21	  38
  21	  40
  21	  42
  21	  52
  21	  53
  21	  54
  21	  59
  22	  23
  22	  25
  22	  27
  22	  33
  22	  37
  22	  39
  22	  40
  22	  41
  22	  43
  22	  45
  22	  48
  22	  49
  22	  55
  22	  58
  23	  25
  23	  26
  23	  27
  23	  28
  23	  29
  23	  30
  23	  31
  23	  33
  23	  36
  23	  38
  23	  39
  23	  40
  23	  43
  23	  44
  23	  46
  23	  48
  23	  50
  23	  51
  23	  54
  23	  59
  24	  26
  24	  31
  24	  32
  24	  37
  24	  39
  24	  40
  24	  42
  24	  44
  24	  45
  24	  46
  24	  47
  24	  54
  24	  58
  25	  26
  25	  30
  25	  32
  25	  33
  25	  40
  25	  42
  25	  45
  25	  47
  25	  48
  25	  49
  25	  50
  25	  58
  25	  59
  26	  28
  26	  29
  26	  31
  26	  33
  26	  34
  26	  35
  26	  42
  26	  43
  26	  44
  26	  45
  26	  46
  26	  51
  26	  54
  26	  57
  26	  58
  27	  29
  27	  31
  27	  33
  27	  35
  27	  36
  27	  39
  27	  40
  27	  41
  27	  42
  27	  43
  27	  44
  27	  46
  27	  47
  27	  49
  27	  51
  27	  52
  27	  53
  27	  54
  27	  56
  28	  29
  28	  30
  28	  31
  28	  33
  28	  36
  28	  40
  28	  41
  28	  42
  28	  43
  28	  44
  28	  45
  28	  47
  28	  48
  28	  54
  28	  55
  28	  56
  28	  58
  29	  33
  29	  35
  29	  40
  29	  42
  29	  44
  29	  47
  29	  48
  29	  53
  29	  58
  30	  35
  30	  36
  30	  38
  30	  41
  30	  43
  30	  46
  30	  48
  30	  49
  30	  51
  30	  53
  30	  55
  30	  58
  31	  32
  31	  35
  31	  38
  31	  39
  31	  49
  31	  50
  31	  51
  31	  53
  31	  54
  31	  56
  31	  58
  32	  34
  32	  36
  32	  37
  32	  39
  32	  42
  32	  43
  32	  49
  32	  50
  32	  52
  32	  54
  32	  56
  32	  57
  33	  38
  33	  47
  33	  49
  33	  52
  33	  53
  33	  54
  33	  55
  33	  57
  34	  35
  34	  37
  34	  38
  34	  39
  34	  40
  34	  42
  34	  43
  34	  44
  34	  46
  34	  48
  34	  52
  34	  56
  34	  57
  34	  58
  35	  37
  35	  39
  35	  41
  35	  43
  35	  46
  35	  48
  35	  54
  35	  57
  35	  59
  36	  38
  36	  40
  36	  43
  36	  44
  36	  45
  36	  46
  36	  50
  36	  51
  36	  53
  36	  55
  36	  56
  36	  57
  36	  58
  36	  59
  37	  38
  37	  44
  37	  46
  37	  49
  37	  50
  37	  52
  37	  54
  37	  56
  38	  39
  38	  40
  38	  41
  38	  42
  38	  43
  38	  49
  38	  53
  39	  40
  39	  44
  39	  45
  39	  46
  39	  47
  39	  48
  39	  49
  39	  50
  39	  52
  39	  53
  39	  55
  40	  41
  40	  45
  40	  52
  40	  54
  40	  56
  40	  58
  40	  59
  41	  43
  41	  44
  41	  47
  41	  48
  41	  54
  41	  56
  41	  58
  42	  50
  42	  51
  42	  53
  42	  55
  42	  57
  42	  58
  43	  47
  43	  53
  43	  55
  43	  56
  43	  57
  43	  59
  44	  47
  44	  49
  44	  50
  44	  51
  44	  59
  45	  46
  45	  50
  45	  55
  45	  57
  45	  58
  46	  47
  46	  51
  46	  56
  46	  57
  46	  58
  47	  50
  47	  51
  47	  53
  47	  55
  47	  56
  48	  50
  48	  51
  49	  52
  49	  56
  50	  53
  50	  54
  50	  55
  50	  56
  51	  52
  51	  54
  51	  57
  51	  58
  52	  54
  52	  55
  52	  56
  52	  59
  53	  59
  54	  56
  55	  58
  56	  59
;
